 vasp.6.3.0 20Jan22 (build Aug 02 2023 10:54:28) complex

 executed on             LinuxIFC date 2024.08.21  16:27:21

 INCAR:
   ALGO = Fast
   EDIFF = 0.0008
   ENCUT = 520
   IBRION = 2
   ISIF = 3
   ISMEAR = -5
   ISPIN = 2
   LASPH = True
   LMAXMIX = 4
   LORBIT = 11
   LREAL = Auto
   LWAVE = False
   MAGMOM = 9*0.6 3*5.0 4*0.6
   NELM = 100
   NSW = 99
   PREC = Accurate
   SIGMA = 0.05

 POTCAR:    PAW_PBE Al 04Jan2001
 POTCAR:    PAW_PBE Co 02Aug2007
 POTCAR:    PAW_PBE Ni_pv 06Sep2000
 POTCAR:    PAW_PBE Ru_pv 28Jan2005
 POTCAR:    PAW_PBE Al 04Jan2001
   VRHFIN =Al: s2p1

   TITEL  = PAW_PBE Al 04Jan2001
   POMASS =   26.981; ZVAL   =    3.000    mass and valenz
   ENMAX  =  240.300; ENMIN  =  180.225 eV

 POTCAR:    PAW_PBE Co 02Aug2007
   VRHFIN =Co: d8 s1

   TITEL  = PAW_PBE Co 02Aug2007
   POMASS =   58.933; ZVAL   =    9.000    mass and valenz
   ENMAX  =  267.968; ENMIN  =  200.976 eV

 POTCAR:    PAW_PBE Ni_pv 06Sep2000
   VRHFIN =Ni:

   TITEL  = PAW_PBE Ni_pv 06Sep2000
   POMASS =   58.690; ZVAL   =   16.000    mass and valenz
   ENMAX  =  367.986; ENMIN  =  275.989 eV

 POTCAR:    PAW_PBE Ru_pv 28Jan2005
   VRHFIN =Ru: 4p5s4d

   TITEL  = PAW_PBE Ru_pv 28Jan2005
   POMASS =  101.070; ZVAL   =   14.000    mass and valenz
   ENMAX  =  240.049; ENMIN  =  180.037 eV

 Optimization of the real space projectors (new method)

 maximal supplied QI-value         = 19.84
 optimisation between [QCUT,QGAM] = [ 11.51, 23.22] = [ 37.09,150.92] Ry
 Optimized for a Real-space Cutoff    1.18 Angstroem

   l    n(q)    QCUT    max X(q) W(low)/X(q) W(high)/X(q)  e(spline)
   0      8    11.508   176.870    0.11E-03    0.16E-03    0.40E-07
   0      8    11.508   105.762    0.11E-03    0.16E-03    0.39E-07
   1      8    11.508    55.370    0.23E-03    0.10E-03    0.75E-07
   1      8    11.508    20.208    0.21E-03    0.91E-04    0.68E-07
 Optimization of the real space projectors (new method)

[...]

   l    n(q)    QCUT    max X(q) W(low)/X(q) W(high)/X(q)  e(spline)
   1      9    11.527     2.836    0.16E-04    0.30E-04    0.95E-07
   1      9    11.527     4.023    0.73E-04    0.81E-04    0.21E-06
   2      9    11.527    73.368    0.15E-03    0.29E-03    0.28E-06
   2      9    11.527    69.010    0.15E-03    0.29E-03    0.29E-06
   0      9    11.527    54.797    0.43E-04    0.28E-04    0.85E-07
   0      9    11.527    24.266    0.33E-04    0.24E-04    0.75E-07
 Optimization of the real space projectors (new method)

 maximal supplied QI-value         = 15.12
 optimisation between [QCUT,QGAM] = [ 11.64, 23.28] = [ 37.95,151.78] Ry
 Optimized for a Real-space Cutoff    1.49 Angstroem

   l    n(q)    QCUT    max X(q) W(low)/X(q) W(high)/X(q)  e(spline)
   1     10    11.641     3.180    0.30E-04    0.36E-05    0.54E-07
   1     10    11.641     5.351    0.12E-03    0.51E-04    0.30E-06
   2      9    11.641    66.565    0.22E-03    0.78E-04    0.20E-06
   2      9    11.641    63.466    0.22E-03    0.79E-04    0.20E-06
   0     10    11.641    85.644    0.61E-04    0.23E-04    0.12E-06
   0     10    11.641    44.119    0.56E-04    0.21E-04    0.11E-06
  PAW_PBE Al 04Jan2001                  :
  PAW_PBE Co 02Aug2007                  :
  PAW_PBE Ni_pv 06Sep2000               :
  PAW_PBE Ru_pv 28Jan2005               :

 POSCAR: Al8 Co1 Ni3 Ru4
  positions in direct lattice
 exchange correlation table for  LEXCH =        8
   RHO(1)=    0.500       N(1)  =     2000
   RHO(2)=  100.500       N(2)  =     4000

 ion  position               nearest neighbor table
   1  0.003  0.503  0.252-   9 2.53  11 2.54  15 2.55  16 2.55  14 2.57  13 2.57  12 2.57  10 2.59
                             2 2.88   3 2.88   2 2.95   3 2.95   7 3.00   7 3.05
   2  0.003  0.997  0.252-   9 2.53  11 2.54  15 2.55  16 2.55  14 2.57  13 2.57  12 2.57  10 2.59
                             1 2.88   4 2.88   1 2.95   4 2.95   8 3.00   8 3.05
   3  0.497  0.503  0.254-   9 2.52  16 2.54  15 2.54  11 2.55  12 2.57  13 2.57  14 2.57  10 2.59
                             4 2.88   1 2.88   4 2.95   1 2.95   5 2.98   5 3.07
   4  0.497  0.997  0.254-   9 2.52  16 2.54  15 2.54  11 2.55  12 2.57  13 2.57  14 2.57  10 2.59
                             3 2.88   2 2.88   3 2.95   2 2.95   6 2.98   6 3.07
   5  0.497  0.503  0.746-   9 2.52  16 2.54  15 2.54  11 2.55  12 2.57  13 2.57  14 2.57  10 2.59
                             6 2.88   7 2.88   6 2.95   7 2.95   3 2.98   3 3.07
   6  0.497  0.997  0.746-   9 2.52  16 2.54  15 2.54  11 2.55  12 2.57  13 2.57  14 2.57  10 2.59
                             5 2.88   8 2.88   5 2.95   8 2.95   4 2.98   4 3.07
   7  0.003  0.503  0.748-   9 2.53  11 2.54  15 2.55  16 2.55  14 2.57  13 2.57  12 2.57  10 2.59
                             8 2.88   5 2.88   8 2.95   5 2.95   1 3.00   1 3.05
   8  0.003  0.997  0.748-   9 2.53  11 2.54  15 2.55  16 2.55  14 2.57  13 2.57  12 2.57  10 2.59
                             7 2.88   6 2.88   7 2.95   6 2.95   2 3.00   2 3.05
   9  0.250  0.750  0.500-   6 2.52   3 2.52   4 2.52   5 2.52   1 2.53   7 2.53   2 2.53   8 2.53
                            16 2.91  15 2.91  15 2.91  16 2.92
  10  0.750  0.250  0.000-   1 2.59   8 2.59   2 2.59   7 2.59   5 2.59   6 2.59   3 2.59   4 2.59
                            13 2.91  14 2.91  14 2.91  13 2.92
  11  0.250  0.750  0.000-   7 2.54   2 2.54   8 2.54   1 2.54   4 2.55   3 2.55   6 2.55   5 2.55
                            14 2.91  13 2.91  13 2.91  14 2.92
  12  0.750  0.250  0.500-   4 2.57   5 2.57   3 2.57   6 2.57   7 2.57   1 2.57   8 2.57   2 2.57
                            15 2.91  16 2.91  16 2.91  15 2.92
  13  0.251  0.250  0.000-   8 2.57   2 2.57   7 2.57   1 2.57   3 2.57   4 2.57   5 2.57   6 2.57
                            10 2.91  11 2.91  11 2.91  10 2.92  15 3.02  15 3.02
  14  0.749  0.750  0.000-   2 2.57   8 2.57   1 2.57   7 2.57   5 2.57   3 2.57   6 2.57   4 2.57
                            11 2.91  10 2.91  10 2.91  11 2.92  16 3.02  16 3.02
  15  0.249  0.250  0.500-   5 2.54   4 2.54   6 2.54   3 2.54   7 2.55   2 2.55   1 2.55   8 2.55
                            12 2.91   9 2.91   9 2.91  12 2.92  13 3.02  13 3.02
  16  0.751  0.750  0.500-   6 2.54   3 2.54   4 2.54   5 2.54   8 2.55   2 2.55   7 2.55   1 2.55
                             9 2.91  12 2.91  12 2.91   9 2.92  14 3.02  14 3.02

  LATTYP: Found a simple monoclinic cell.
 ALAT       =     8.3984966787
 B/A-ratio  =     0.6939769369
 C/A-ratio  =     1.5633718450
 COS(beta)  =    -0.9475568182

  Lattice vectors:

 A1 = (   0.0001879843,  -5.8269119926,   6.0482925737)
 A2 = (   5.8283629940,   0.0000000000,  -0.0002649120)
 A3 = (  -0.0003759685,  11.6538239851,  -6.0485191475)

Analysis of symmetry for initial positions (statically):
 Subroutine PRICEL returns:
 Original cell was already a primitive cell.

 Routine SETGRP: Setting up the symmetry group for a
 simple monoclinic supercell.

 Subroutine GETGRP returns: Found  1 space group operations
 (whereof  1 operations were pure point group operations)
 out of a pool of  4 trial point group operations.

The static configuration has the point symmetry C_1 .

Analysis of symmetry for dynamics (positions and initial velocities):
 Subroutine PRICEL returns:
 Original cell was already a primitive cell.

[...]

The dynamic configuration has the point symmetry C_1 .

Analysis of structural, dynamic, and magnetic symmetry:
 Subroutine PRICEL returns:
 Original cell was already a primitive cell.

 Routine SETGRP: Setting up the symmetry group for a
 simple monoclinic supercell.

 Subroutine GETGRP returns: Found  1 space group operations
 (whereof  1 operations were pure point group operations)
 out of a pool of  4 trial point group operations.

The overall configuration has the point symmetry C_1 .

 Subroutine INISYM returns: Found  1 space group operations
 (whereof  1 operations are pure point group operations),
 and found     1 'primitive' translations

                                     Primitive cell

  volume of cell :     205.4005

  direct lattice vectors                    reciprocal lattice vectors
     5.828362994  0.000000000 -0.000264912     0.171574763  0.000005535  0.000000000
    -0.000187984  5.826911993 -0.000226574     0.000000000  0.171617488  0.000000000
     0.000000000  0.000000000  6.048066000     0.000007515  0.000006429  0.165342111

  length of vectors
     5.828363000  5.826912000  6.048066000     0.171574763  0.171617488  0.165342111

  position of ions in fractional coordinates (direct lattice)
     0.003242000  0.503241000  0.252127000
     0.003243000  0.996751000  0.252113000
     0.496724000  0.503228000  0.253846000
     0.496726000  0.996774000  0.253858000
     0.496749000  0.503214000  0.746158000
     0.496731000  0.996772000  0.746144000
     0.003257000  0.503247000  0.747867000
     0.003238000  0.996767000  0.747890000
     0.249655000  0.749996000  0.500007000
     0.749560000  0.249997000  0.000002000
     0.250449000  0.749999000  1.000000000
     0.750478000  0.250000000  0.499992000
     0.250779000  0.250001000  0.000002000
     0.749327000  0.749997000  1.000000000
     0.249230000  0.250005000  0.500000000
     0.750610000  0.750010000  0.500002000

  ion indices of the primitive-cell ions
   primitive index   ion index
                 1           1
                 2           2
                 3           3
                 4           4
                 5           5
                 6           6
                 7           7
                 8           8
                 9           9
                10          10
                11          11
                12          12
                13          13
                14          14
                15          15
                16          16

 KPOINTS: pymatgen with grid density = 1237 / numb

Automatic generation of k-mesh.
 Grid dimensions read from file:
 generate k-points for:    4    4    4

 Generating k-lattice:

  Cartesian coordinates                     Fractional coordinates (reciprocal lattice)
     0.042893691  0.000001384  0.000000000     0.250000000  0.000000000  0.000000000
     0.000000000  0.042904372  0.000000000     0.000000000  0.250000000  0.000000000
     0.000001879  0.000001607  0.041335528     0.000000000 -0.000000000  0.250000000

  Length of vectors
     0.042893691  0.042904372  0.041335528

  Shift w.r.t. Gamma in fractional coordinates (k-lattice)
     0.500000000  0.500000000  0.500000000

 TETIRR: Found    192 inequivalent tetrahedra from      384

 Subroutine IBZKPT returns following result:

 Found     32 irreducible k-points:

 Following reciprocal coordinates:
            Coordinates               Weight
  0.125000  0.125000  0.125000      2.000000
  0.125000 -0.125000 -0.125000      2.000000
  0.375000  0.125000  0.125000      2.000000
  0.375000 -0.125000 -0.125000      2.000000
  0.125000  0.375000  0.125000      2.000000
  0.125000 -0.375000 -0.125000      2.000000
  0.375000  0.375000  0.125000      2.000000
  0.375000 -0.375000 -0.125000      2.000000
  0.125000 -0.375000  0.125000      2.000000
  0.125000  0.375000 -0.125000      2.000000
  0.375000 -0.375000  0.125000      2.000000
[...]
|     relaxations.                                                            |

[...]

 d Force = 0.1548149E-03[ 0.147E-03, 0.163E-03]  d Energy =-0.2614291E-01 0.263E-01
 d Force =-0.2333613E-01[-0.239E-01,-0.228E-01]  d Ewald  = 0.9694378E+02-0.970E+02

 Steepest descent step on ions:
 trial-energy change:    0.026143  1 .order    0.041107   -0.054949    0.137163
  (g-gl).g = 0.549E-01      g.g   = 0.549E-01  gl.gl    = 0.000E+00
 g(Force)  = 0.164E-03   g(Stress)= 0.548E-01 ortho     = 0.000E+00
 gamma     =   0.00000
 trial     =   1.00000
 opt step  =   0.39800  (harmonic =   0.28603) maximal distance =0.00050497
 next E    =  -101.732270   (d E  =  -0.01188)

|           W    W    AA    RRRRR   N    N  II  N    N   GGGG   !!!           |
|           W    W   A  A   R    R  NN   N  II  NN   N  G    G  !!!           |
|           W    W  A    A  R    R  N N  N  II  N N  N  G       !!!           |
|           W WW W  AAAAAA  RRRRR   N  N N  II  N  N N  G  GGG   !            |
|           WW  WW  A    A  R   R   N   NN  II  N   NN  G    G                |
|           W    W  A    A  R    R  N    N  II  N    N   GGGG   !!!           |
|     Tetrahedron method does not include variations of the Fermi             |
|     occupations, so forces and stress will be inaccurate. We suggest        |
|     using a different smearing scheme ISMEAR = 1 or 2 for metals in         |
|     relaxations.                                                            |

[...]

 eigenvalue-minimisations  : 12288
 total energy-change (2. order) :-0.2503153E+01  (-0.1004640E+01)
 number of electron     137.0000026 magnetization       0.0000518
 augmentation part       52.0547922 magnetization       0.0000253

[...]

 Broyden mixing:
  rms(total) = 0.23038E-01    rms(broyden)= 0.23023E-01
  rms(prec ) = 0.36957E-01
  weight for this iteration     100.00

 eigenvalues of (default mixing * dielectric matrix)
  average eigenvalue GAMMA=   0.7405
  2.5208  1.1971  0.6511  0.6511  0.1699  0.2072  0.2186  0.3083

[...]

--------------------------------------- Iteration      3(  10)  ---------------------------------------

[...]

 eigenvalue-minimisations  :  7366
 total energy-change (2. order) : 0.1927582E-03  (-0.7158472E-04)
 number of electron     137.0000027 magnetization      -0.0000006
 augmentation part       54.2737553 magnetization      -0.0000050

 Free energy of the ion-electron system (eV)
  alpha Z        PSCENC =       570.73860799
  Ewald energy   TEWEN  =    -13026.53610315
  -Hartree energ DENC   =     -5975.17169988
  -exchange      EXHF   =         0.00000000
  -V(xc)+E(xc)   XCENC  =       305.92624491
  PAW double counting   =     18755.63430938   -18924.00305690
  entropy T*S    EENTRO =         0.00000000
  eigenvalues    EBANDS =     -1047.05204424
  atomic energy  EATOM  =     19238.73949937
  Solvation  Ediel_sol  =         0.00000000
  free energy    TOTEN  =      -101.72424254 eV

  energy without entropy =     -101.72424254  energy(sigma->0) =     -101.72424254

 average (electrostatic) potential at core
  the test charge radii are     1.0406  1.0452  0.8614  1.1008
  (the norm of the test charge is              1.0000)
       1 -69.5818       2 -69.5829       3 -69.5818       4 -69.5802       5 -69.5818
       6 -69.5806       7 -69.5814       8 -69.5830       9 -77.6613      10 -76.9816
      11 -77.0725      12 -77.0097      13 -68.9057      14 -68.9054      15 -68.8966
      16 -68.8964

 E-fermi :  10.2137     XC(G=0): -12.3824     alpha+bet :-18.3134

 Fermi energy:        10.2136938711

[...]

 k-point    32 :       0.3750    0.1250   -0.3750
  band No.  band energies     occupation
      1     -53.4589      1.00000
      2     -53.4540      1.00000
      3     -53.4452      1.00000
      4     -53.4215      1.00000
      5     -53.4195      1.00000
      6     -53.3903      1.00000
      7     -53.3872      1.00000
      8     -53.3312      1.00000
      9     -53.3047      1.00000
     10     -32.0146      1.00000
     11     -32.0139      1.00000
     12     -31.9406      1.00000
     13     -31.9402      1.00000
     14     -31.9192      1.00000
     15     -31.9165      1.00000
     16     -31.9093      1.00000
     17     -31.9077      1.00000
     18     -31.9068      1.00000
     19     -31.9056      1.00000
     20     -31.8988      1.00000
     21     -31.8969      1.00000
     22       1.1150      1.00000
     23       2.0879      1.00000
     24       2.1788      1.00000
     25       2.9912      1.00000
     26       3.9535      1.00000
     27       4.3743      1.00000
     28       4.4528      1.00000
     29       4.8412      1.00000
     30       5.5210      1.00000
     31       6.0918      1.00000
     32       6.1332      1.00000
     33       6.1877      1.00000
     34       6.3760      1.00000
     35       6.4278      1.00000
     36       6.4553      1.00000
     37       6.5369      1.00000
     38       6.8921      1.00000
     39       6.9545      1.00000
     40       7.0155      1.00000
     41       7.1163      1.00000
     42       7.2000      1.00000
     43       7.3426      1.00000
     44       7.3747      1.00000
     45       7.4210      1.00000
     46       8.0107      1.00000
     47       8.0930      1.00000
     48       8.1054      1.00000
     49       8.1155      1.00000
     50       8.2157      1.00000
     51       8.3386      1.00000
     52       8.4753      1.00000
     53       8.5781      1.00000
     54       8.6067      1.00000
     55       8.6602      1.00000
     56       8.6776      1.00000
     57       8.6810      1.00000
     58       8.7076      1.00000
     59       8.8341      1.00000
     60       8.8651      1.00000
[...]
     82      15.0511      0.00000
     83      15.3171      0.00000
     84      15.4282      0.00000
     85      15.5616      0.00000
     86      16.2055      0.00000
     87      16.6318      0.00000
     88      16.7418      0.00000
     89      16.9862      0.00000
     90      17.0690      0.00000
     91      17.3874      0.00000
     92      17.5243      0.00000
     93      17.9026      0.00000
     94      17.9836      0.00000
     95      18.4149      0.00000
     96      18.5707      0.00000
 Fermi energy:        10.2136938711

 spin component 2

[...]

 k-point    32 :       0.3750    0.1250   -0.3750
  band No.  band energies     occupation
      1     -53.4589      1.00000
      2     -53.4540      1.00000
      3     -53.4452      1.00000
      4     -53.4215      1.00000
      5     -53.4195      1.00000
      6     -53.3903      1.00000
      7     -53.3872      1.00000
      8     -53.3312      1.00000
      9     -53.3047      1.00000
     10     -32.0146      1.00000
     11     -32.0139      1.00000
     12     -31.9406      1.00000
     13     -31.9402      1.00000
     14     -31.9192      1.00000
     15     -31.9165      1.00000
     16     -31.9093      1.00000
     17     -31.9077      1.00000
     18     -31.9068      1.00000
     19     -31.9056      1.00000
     20     -31.8988      1.00000
     21     -31.8969      1.00000
     22       1.1150      1.00000
     23       2.0879      1.00000
     24       2.1788      1.00000
     25       2.9912      1.00000
     26       3.9535      1.00000
     27       4.3743      1.00000
     28       4.4528      1.00000
     29       4.8412      1.00000
     30       5.5210      1.00000
     31       6.0918      1.00000
     32       6.1332      1.00000
     33       6.1877      1.00000
     34       6.3760      1.00000
     35       6.4278      1.00000
     36       6.4553      1.00000
     37       6.5369      1.00000
     38       6.8921      1.00000
     39       6.9545      1.00000
     40       7.0155      1.00000
     41       7.1163      1.00000
     42       7.2000      1.00000
     43       7.3426      1.00000
     44       7.3747      1.00000
     45       7.4210      1.00000
     46       8.0107      1.00000
     47       8.0930      1.00000
     48       8.1054      1.00000
     49       8.1155      1.00000
     50       8.2157      1.00000
     51       8.3386      1.00000
     52       8.4753      1.00000
     53       8.5781      1.00000
     54       8.6067      1.00000
     55       8.6602      1.00000
     56       8.6776      1.00000
     57       8.6810      1.00000
     58       8.7076      1.00000
     59       8.8341      1.00000
     60       8.8651      1.00000
[...]
     82      15.0511      0.00000
     83      15.3171      0.00000
     84      15.4282      0.00000
     85      15.5616      0.00000
     86      16.2055      0.00000
     87      16.6318      0.00000
     88      16.7418      0.00000
     89      16.9863      0.00000
     90      17.0690      0.00000
     91      17.3874      0.00000
     92      17.5243      0.00000
     93      17.9026      0.00000
     94      17.9836      0.00000
     95      18.4148      0.00000
     96      18.5711      0.00000

[...]

 soft charge-density along one line, spin component           2
         0         1         2         3         4         5         6         7         8         9
 total charge-density along one line

------------------------ aborting loop because EDIFF is reached ----------------------------------------

[...]

  FORCE on cell =-STRESS in cart. coord.  units (eV):
  Direction    XX          YY          ZZ          XY          YZ          ZX
  Alpha Z   570.73861   570.73861   570.73861
  Ewald   -4244.96583 -4243.75262 -4537.84802     0.02424    -0.00176     0.00198
  Hartree  2073.43559  2074.49583  1823.71046     0.06373    -0.02560    -0.02872
  E(xc)    -762.63714  -762.63707  -762.69634    -0.00154    -0.00018    -0.00019
  Local    -143.12206  -145.44512   400.80826    -0.33546     0.07907     0.07865
  n-local  -253.52248  -253.50360  -254.00914     0.03340    -0.00648    -0.00593
  augment   994.36971   994.39831   995.59564     0.11048    -0.01751    -0.01754
  Kinetic  1764.43227  1764.49003  1762.33547     0.14450    -0.01736    -0.01733
  Fock        0.00000     0.00000     0.00000     0.00000     0.00000     0.00000
  Total      -1.27133    -1.21564    -1.36508     0.03936     0.01018     0.01093
  in kB     -10.00469    -9.56645   -10.74245     0.30971     0.08011     0.08603

 VOLUME and BASIS-vectors are now :
  energy-cutoff  :      520.00
  volume of cell :      203.59
      direct lattice vectors                 reciprocal lattice vectors
     5.812111246 -0.000245176 -0.000160152     0.172054519  0.000012808 -0.000003077
    -0.000432575  5.811087672 -0.000123628     0.000007259  0.172084825 -0.000003028
     0.000107796  0.000106075  6.027996347     0.000004571  0.000003530  0.165892602

  length of vectors
     5.812111254  5.811087689  6.027996349     0.172054519  0.172084825  0.165892602

 FORCES acting on ions
    electron-ion (+dipol)            ewald-force                    non-local-force                 convergence-correction
   -.166E+02 -.166E+02 -.185E+02   0.171E+02 0.171E+02 0.191E+02   -.500E+00 -.498E+00 -.546E+00   -.773E-02 -.796E-02 -.151E-01
   -.166E+02 0.166E+02 -.185E+02   0.171E+02 -.171E+02 0.191E+02   -.499E+00 0.499E+00 -.548E+00   -.770E-02 0.797E-02 -.150E-01
   0.167E+02 -.166E+02 -.187E+02   -.172E+02 0.171E+02 0.193E+02   0.508E+00 -.506E+00 -.616E+00   0.748E-02 -.772E-02 -.154E-01
   0.167E+02 0.166E+02 -.187E+02   -.172E+02 -.171E+02 0.193E+02   0.509E+00 0.507E+00 -.614E+00   0.742E-02 0.771E-02 -.155E-01
   0.167E+02 -.166E+02 0.187E+02   -.172E+02 0.171E+02 -.193E+02   0.506E+00 -.505E+00 0.615E+00   0.746E-02 -.775E-02 0.154E-01
   0.167E+02 0.166E+02 0.187E+02   -.172E+02 -.171E+02 -.193E+02   0.508E+00 0.507E+00 0.614E+00   0.744E-02 0.774E-02 0.155E-01
   -.166E+02 -.166E+02 0.185E+02   0.171E+02 0.171E+02 -.191E+02   -.502E+00 -.499E+00 0.548E+00   -.769E-02 -.794E-02 0.151E-01
   -.166E+02 0.166E+02 0.185E+02   0.171E+02 -.171E+02 -.191E+02   -.499E+00 0.497E+00 0.548E+00   -.771E-02 0.796E-02 0.150E-01
   -.875E+00 -.328E-02 0.751E-02   0.805E+00 0.302E-02 -.754E-02   0.727E-01 0.574E-03 -.780E-04   -.380E-03 0.432E-03 -.109E-04
   -.233E+01 -.336E-02 0.247E-01   0.220E+01 0.392E-02 -.246E-01   0.140E+00 -.286E-03 -.705E-04   -.428E-02 -.149E-03 -.910E-05
   0.252E+01 -.236E-02 -.188E-02   -.240E+01 0.192E-02 0.137E-02   -.139E+00 0.167E-03 0.342E-03   0.459E-02 0.267E-03 0.410E-05
   0.195E+01 -.170E-01 -.265E-01   -.182E+01 0.168E-01 0.268E-01   -.138E+00 0.722E-03 -.127E-04   0.140E-02 -.420E-03 -.677E-04
   0.246E+01 0.547E-03 0.671E-02   -.245E+01 -.972E-03 -.655E-02   -.270E-01 0.563E-03 -.133E-03   0.271E-02 -.189E-03 -.103E-03
   -.209E+01 0.465E-02 0.324E-02   0.208E+01 -.417E-02 -.343E-02   0.214E-01 -.425E-03 0.828E-04   -.150E-02 0.922E-05 0.103E-03
   -.237E+01 0.443E-02 -.801E-02   0.235E+01 -.384E-02 0.798E-02   0.303E-01 -.351E-03 0.107E-03   0.130E-03 -.851E-03 0.365E-04
   0.339E+00 0.196E-01 -.391E-02   -.313E+00 -.202E-01 0.403E-02   -.342E-01 -.405E-03 -.963E-04   0.739E-03 0.179E-03 -.131E-03
   0.444E-01 -.712E-03 -.120E-03   -.184E-13 0.173E-14 -.857E-14   -.417E-01 0.142E-02 0.357E-03   0.239E-02 -.707E-03 -.170E-03

 POSITION                                       TOTAL-FORCE (eV/Angst)
      0.01866      2.92445      1.51990        -0.006157     -0.004779      0.001518
      0.01848      5.79219      1.51981        -0.005162      0.004787      0.003276
      2.88682      2.92429      1.52960         0.007891     -0.005776     -0.030192
      2.88660      5.79216      1.52957         0.006880      0.005778     -0.031578
      2.88699      2.92425      4.49814         0.006543     -0.005970      0.030091
      2.88670      5.79223      4.49805         0.007939      0.006756      0.032121
      0.01881      2.92456      4.50793        -0.005891     -0.004028     -0.001758
      0.01849      5.79231      4.50796        -0.005758      0.003715     -0.003375
      1.45078      4.35830      3.01391         0.002722      0.000737     -0.000123
      4.35655      1.45257     -0.00014         0.010046      0.000126      0.000089
      1.45524      4.35825     -0.00014        -0.007832     -0.000002     -0.000163
      4.36168      1.45264      3.01380        -0.010348      0.000036      0.000191
      1.45720      1.45271     -0.00006        -0.013516     -0.000051     -0.000076
      4.35501      4.35811     -0.00021         0.009058      0.000064     -0.000012
      1.44870      1.45278      3.01393         0.011314     -0.000608      0.000106
      4.36224      4.35823      3.01379        -0.007727     -0.000785     -0.000115
    total drift:                                0.005020      0.000003      0.000068

  FREE ENERGIE OF THE ION-ELECTRON SYSTEM (eV)
  free  energy   TOTEN  =      -101.72424254 eV

  energy  without entropy=     -101.72424254  energy(sigma->0) =     -101.72424254

 d Force =-0.9679800E-04[-0.104E-03,-0.898E-04]  d Energy = 0.2999415E-01-0.301E-01
 d Force = 0.1442539E-01[ 0.142E-01, 0.146E-01]  d Ewald  =-0.5853195E+02 0.585E+02

 reached required accuracy - stopping structural energy minimisation
|           W    W    AA    RRRRR   N    N  II  N    N   GGGG   !!!           |
|           W    W   A  A   R    R  NN   N  II  NN   N  G    G  !!!           |
|           W    W  A    A  R    R  N N  N  II  N N  N  G       !!!           |
|           W WW W  AAAAAA  RRRRR   N  N N  II  N  N N  G  GGG   !            |
|           WW  WW  A    A  R   R   N   NN  II  N   NN  G    G                |
|           W    W  A    A  R    R  N    N  II  N    N   GGGG   !!!           |
|     Tetrahedron method does not include variations of the Fermi             |
|     occupations, so forces and stress will be inaccurate. We suggest        |
|     using a different smearing scheme ISMEAR = 1 or 2 for metals in         |
|     relaxations.                                                            |

 total charge

[...]

 magnetization (x)

# of ion       s       p       d       tot
    1       -0.000  -0.000   0.000  -0.000
    2        0.000   0.000   0.000   0.000
    3        0.000   0.000   0.000   0.000
    4       -0.000  -0.000   0.000  -0.000
    5       -0.000  -0.000   0.000  -0.000
    6        0.000  -0.000   0.000   0.000
    7       -0.000  -0.000   0.000  -0.000
    8        0.000   0.000   0.000   0.000
    9       -0.000   0.000  -0.000  -0.000
   10        0.000  -0.000   0.000   0.000
   11        0.000   0.000   0.000   0.000
   12        0.000   0.000  -0.000  -0.000
   13       -0.000  -0.000  -0.000  -0.000
   14       -0.000  -0.000  -0.000  -0.000
   15       -0.000  -0.000  -0.000  -0.000
   16       -0.000  -0.000   0.000  -0.000
tot         -0.000   0.000  -0.000  -0.000

 BZINTS: Fermi energy:   10.213694;  137.000000 electrons
         Band energy:-0.104705E+04;  BLOECHL correction:   -0.099163